
Gurobi 12.0.2 (win64) logging started Wed Nov 26 15:43:52 2025

Set parameter LogFile to value "resultados DATA_1_n100m10b2d2\instancia_3_log.txt"
Set parameter TimeLimit to value 3600
Gurobi Optimizer version 12.0.2 build v12.0.2rc0 (win64 - Windows 10.0 (19045.2))

CPU model: Intel(R) Core(TM) i5-6300U CPU @ 2.40GHz, instruction set [SSE2|AVX|AVX2]
Thread count: 2 physical cores, 4 logical processors, using up to 4 threads

Non-default parameters:
TimeLimit  3600

Optimize a model with 2662 rows, 2461 columns and 1515953 nonzeros
Model fingerprint: 0x1bbfab4f
Variable types: 0 continuous, 2461 integer (2461 binary)
Coefficient statistics:
  Matrix range     [1e+00, 1e+00]
  Objective range  [5e-02, 2e-01]
  Bounds range     [1e+00, 1e+00]
  RHS range        [1e+00, 8e+00]
Found heuristic solution: objective 0.7070000
Presolve removed 29 rows and 2273 columns
Presolve time: 1.21s
Presolved: 2633 rows, 188 columns, 85990 nonzeros
Found heuristic solution: objective 0.2296320
Variable types: 0 continuous, 188 integer (188 binary)

Root relaxation: objective 8.354185e-01, 475 iterations, 0.23 seconds (0.15 work units)

    Nodes    |    Current Node    |     Objective Bounds      |     Work
 Expl Unexpl |  Obj  Depth IntInf | Incumbent    BestBd   Gap | It/Node Time

     0     0    0.83542    0   48    0.70700    0.83542  18.2%     -    2s
H    0     0                       0.7421400    0.83542  12.6%     -    2s
     0     0    0.82672    0  105    0.74214    0.82672  11.4%     -    3s
     0     0    0.82540    0  103    0.74214    0.82540  11.2%     -    4s
     0     0    0.82501    0  103    0.74214    0.82501  11.2%     -    4s
     0     0    0.82405    0  102    0.74214    0.82405  11.0%     -    4s
     0     0    0.82396    0  104    0.74214    0.82396  11.0%     -    4s
     0     0    0.82343    0  110    0.74214    0.82343  11.0%     -    5s
     0     0    0.82336    0  112    0.74214    0.82336  10.9%     -    5s
     0     0    0.82324    0  112    0.74214    0.82324  10.9%     -    5s
     0     0    0.82317    0  106    0.74214    0.82317  10.9%     -    5s
     0     0    0.82293    0  109    0.74214    0.82293  10.9%     -    6s
     0     0    0.82277    0  110    0.74214    0.82277  10.9%     -    6s
     0     0    0.82268    0  107    0.74214    0.82268  10.9%     -    6s
     0     0    0.82262    0  109    0.74214    0.82262  10.8%     -    6s
     0     0    0.82211    0  113    0.74214    0.82211  10.8%     -    7s
H    0     0                       0.7852740    0.82211  4.69%     -    7s
     0     0    0.82201    0  120    0.78527    0.82201  4.68%     -    7s
     0     0    0.82178    0  110    0.78527    0.82178  4.65%     -    8s
     0     0    0.82175    0  112    0.78527    0.82175  4.64%     -    8s
     0     0    0.82167    0  112    0.78527    0.82167  4.63%     -    8s
     0     0    0.82160    0  114    0.78527    0.82160  4.63%     -    8s
     0     0    0.82141    0  115    0.78527    0.82141  4.60%     -    9s
     0     0    0.82133    0  114    0.78527    0.82133  4.59%     -    9s
     0     0    0.82132    0  115    0.78527    0.82132  4.59%     -    9s
     0     0    0.82125    0  105    0.78527    0.82125  4.58%     -    9s
     0     0    0.82101    0  109    0.78527    0.82101  4.55%     -   10s
H    0     0                       0.7911080    0.82101  3.78%     -   10s
     0     0    0.82099    0  109    0.79111    0.82099  3.78%     -   10s
     0     0    0.82078    0  112    0.79111    0.82078  3.75%     -   10s
     0     0    0.82076    0  114    0.79111    0.82076  3.75%     -   10s
     0     0    0.82070    0  118    0.79111    0.82070  3.74%     -   11s
     0     0    0.82069    0  114    0.79111    0.82069  3.74%     -   11s
     0     0    0.82057    0  115    0.79111    0.82057  3.72%     -   11s
     0     0    0.82053    0  112    0.79111    0.82053  3.72%     -   11s
     0     0    0.82053    0  115    0.79111    0.82053  3.72%     -   12s
     0     0    0.82052    0  115    0.79111    0.82052  3.72%     -   12s
     0     0    0.82046    0  114    0.79111    0.82046  3.71%     -   12s
     0     0    0.82044    0  115    0.79111    0.82044  3.71%     -   12s
     0     0    0.82042    0  118    0.79111    0.82042  3.71%     -   12s
     0     0    0.82033    0  115    0.79111    0.82033  3.69%     -   13s
     0     0    0.82032    0  115    0.79111    0.82032  3.69%     -   13s
     0     0    0.82030    0  115    0.79111    0.82030  3.69%     -   13s
     0     0    0.82021    0  114    0.79111    0.82021  3.68%     -   13s
     0     0    0.82019    0  113    0.79111    0.82019  3.68%     -   13s
     0     0    0.82016    0  111    0.79111    0.82016  3.67%     -   14s
     0     0    0.82014    0  114    0.79111    0.82014  3.67%     -   14s
     0     0    0.82013    0  113    0.79111    0.82013  3.67%     -   14s
     0     0    0.82013    0  111    0.79111    0.82013  3.67%     -   14s
     0     0    0.82012    0  112    0.79111    0.82012  3.67%     -   15s
     0     0    0.82012    0  112    0.79111    0.82012  3.67%     -   15s
     0     0    0.82010    0  118    0.79111    0.82010  3.67%     -   15s
     0     0    0.82010    0  118    0.79111    0.82010  3.67%     -   15s
     0     0    0.82010    0  104    0.79111    0.82010  3.67%     -   17s
     0     0    0.81934    0  104    0.79111    0.81934  3.57%     -   17s
     0     0    0.81925    0  105    0.79111    0.81925  3.56%     -   17s
     0     0    0.81802    0   97    0.79111    0.81802  3.40%     -   17s
     0     0    0.81757    0   95    0.79111    0.81757  3.35%     -   17s
     0     0    0.81696    0  100    0.79111    0.81696  3.27%     -   17s
     0     0    0.81684    0  100    0.79111    0.81684  3.25%     -   17s
     0     0    0.81659    0  106    0.79111    0.81659  3.22%     -   17s
     0     0    0.81651    0  104    0.79111    0.81651  3.21%     -   17s
     0     0    0.81638    0  106    0.79111    0.81638  3.20%     -   17s
     0     0    0.81618    0  111    0.79111    0.81618  3.17%     -   17s
     0     0    0.81587    0  108    0.79111    0.81587  3.13%     -   18s
     0     0    0.81566    0  104    0.79111    0.81566  3.10%     -   18s
     0     0    0.81538    0  103    0.79111    0.81538  3.07%     -   18s
     0     0    0.81528    0  104    0.79111    0.81528  3.06%     -   18s
     0     0    0.81513    0  101    0.79111    0.81513  3.04%     -   18s
     0     0    0.81509    0  104    0.79111    0.81509  3.03%     -   18s
     0     0    0.81501    0  104    0.79111    0.81501  3.02%     -   18s
     0     0    0.81501    0  103    0.79111    0.81501  3.02%     -   18s
     0     0    0.81498    0  108    0.79111    0.81498  3.02%     -   18s
     0     0    0.81498    0  108    0.79111    0.81498  3.02%     -   18s
     0     2    0.81497    0  108    0.79111    0.81497  3.02%     -   18s

Cutting planes:
  MIR: 7
  Zero half: 42

Explored 25 nodes (7657 simplex iterations) in 19.05 seconds (12.44 work units)
Thread count was 4 (of 4 available processors)

Solution count 5: 0.791108 0.785274 0.74214 ... 0.229632
No other solutions better than 0.791108

Optimal solution found (tolerance 1.00e-04)
Best objective 7.911080000000e-01, best bound 7.911080000000e-01, gap 0.0000%
